VALUE 4033
2 91
3 132
4 396
5 113
6 103
6 7
8 548
9 566
91 462
97 185
103 462
111 615
97 113
132 401
143 462
178 364
178 185
111 222
231 364
143 301
1 329
364 401
231 396
401 617
301 444
329 462
222 548
91 566
444 615
462 617

